\* Problem: SCRS8BH *\

Minimize
 ROWOBJ: + 634.54094 COL00001 + 185.20865 COL00002 + 185.20865 COL00003
 + 105.4884 COL00004 + 12.07882 COL00005 + 20.13137 COL00006
 + 112.7357 COL00007 + 5305.3823 COL00011 + 241.5765 COL00028
 + 483.153 COL00029 + 748.88715 COL00030 + 990.46365 COL00031
 + 1215.93505 COL00032 + 1425.30135 COL00033 + 1610.51 COL00034
 + 1779.61355 COL00035 + 1924.55945 COL00036 + 2053.40025 COL00037
 + 49.25 COL00038 + 14.375 COL00039 + 14.375 COL00040 + 8.1875 COL00041
 + 0.9375 COL00042 + 1.5625 COL00043 + 8.75 COL00044
 + 411.778075 COL00048 + 549.0376 COL00049 + 18.75 COL00066
 + 37.5 COL00067 + 58.125 COL00068 + 76.875 COL00069 + 94.375 COL00070
 + 110.625 COL00071 + 125 COL00072 + 138.125 COL00073 + 149.375 COL00074
 + 159.375 COL00075 + 49.25 COL00076 + 14.375 COL00077 + 14.375 COL00078
 + 8.1875 COL00079 + 0.9375 COL00080 + 1.5625 COL00081 + 8.75 COL00082
 + 411.778075 COL00086 + 549.0376 COL00087 + 18.75 COL00104
 + 37.5 COL00105 + 58.125 COL00106 + 76.875 COL00107 + 94.375 COL00108
 + 110.625 COL00109 + 125 COL00110 + 138.125 COL00111 + 149.375 COL00112
 + 159.375 COL00113 + 49.25 COL00114 + 14.375 COL00115 + 14.375 COL00116
 + 8.1875 COL00117 + 0.9375 COL00118 + 1.5625 COL00119 + 8.75 COL00120
 + 411.778075 COL00124 + 549.0376 COL00125 + 18.75 COL00142
 + 37.5 COL00143 + 58.125 COL00144 + 76.875 COL00145 + 94.375 COL00146
 + 110.625 COL00147 + 125 COL00148 + 138.125 COL00149 + 149.375 COL00150
 + 159.375 COL00151 + 49.25 COL00152 + 14.375 COL00153 + 14.375 COL00154
 + 8.1875 COL00155 + 0.9375 COL00156 + 1.5625 COL00157 + 8.75 COL00158
 + 411.778075 COL00162 + 549.0376 COL00163 + 18.75 COL00180
 + 37.5 COL00181 + 58.125 COL00182 + 76.875 COL00183 + 94.375 COL00184
 + 110.625 COL00185 + 125 COL00186 + 138.125 COL00187 + 149.375 COL00188
 + 159.375 COL00189 + 49.25 COL00190 + 14.375 COL00191 + 14.375 COL00192
 + 8.1875 COL00193 + 0.9375 COL00194 + 1.5625 COL00195 + 8.75 COL00196
 + 411.778075 COL00200 + 549.0376 COL00201 + 18.75 COL00218
 + 37.5 COL00219 + 58.125 COL00220 + 76.875 COL00221 + 94.375 COL00222
 + 110.625 COL00223 + 125 COL00224 + 138.125 COL00225 + 149.375 COL00226
 + 159.375 COL00227 + 49.25 COL00228 + 14.375 COL00229 + 14.375 COL00230
 + 8.1875 COL00231 + 0.9375 COL00232 + 1.5625 COL00233 + 8.75 COL00234
 + 411.778075 COL00238 + 549.0376 COL00239 + 18.75 COL00256
 + 37.5 COL00257 + 58.125 COL00258 + 76.875 COL00259 + 94.375 COL00260
 + 110.625 COL00261 + 125 COL00262 + 138.125 COL00263 + 149.375 COL00264
 + 159.375 COL00265 + 49.25 COL00266 + 14.375 COL00267 + 14.375 COL00268
 + 8.1875 COL00269 + 0.9375 COL00270 + 1.5625 COL00271 + 8.75 COL00272
 + 411.778075 COL00276 + 549.0376 COL00277 + 18.75 COL00294
 + 37.5 COL00295 + 58.125 COL00296 + 76.875 COL00297 + 94.375 COL00298
 + 110.625 COL00299 + 125 COL00300 + 138.125 COL00301 + 149.375 COL00302
 + 159.375 COL00303 + 49.25 COL00304 + 14.375 COL00305 + 14.375 COL00306
 + 8.1875 COL00307 + 0.9375 COL00308 + 1.5625 COL00309 + 8.75 COL00310
 + 411.778075 COL00314 + 549.0376 COL00315 + 18.75 COL00332
 + 37.5 COL00333 + 58.125 COL00334 + 76.875 COL00335 + 94.375 COL00336
 + 110.625 COL00337 + 125 COL00338 + 138.125 COL00339 + 149.375 COL00340
 + 159.375 COL00341

Subject To
 ROW00001: - COL00001 + 5 COL00011 = 0
 ROW00002: - COL00002 = 0
 ROW00003: - COL00003 = 0
 ROW00004: - COL00004 = 0
 ROW00005: - COL00005 + 5 COL00012 = 0
 ROW00006: - COL00006 + 5 COL00013 = 0
 ROW00007: - COL00007 = 0
 ROW00008: - COL00008 = 0
 ROW00009: - COL00009 + 5 COL00014 = 0
 ROW00010: + COL00001 + COL00002 + COL00003 + COL00004 - COL00008 >= 0
 ROW00011: + COL00005 + COL00006 + 22.5 COL00007 + 36 COL00008 >= 0
 ROW00012: + 0.0657 COL00001 + 0.00133 COL00006 - 0.2 COL00015
 = -0.01298
 ROW00013: + 0.001 COL00005 - 0.2 COL00016 = -0.044
 ROW00014: + 0.16 COL00010 - 0.2 COL00017 = 0
 ROW00015: + 0.16 COL00002 - COL00028 - COL00029 - COL00030 - COL00031
 - COL00032 - COL00033 - COL00034 - COL00035 - COL00036 - COL00037 <= 0
 ROW00016: + 0.11 COL00002 - COL00009 <= 0
 ROW00017: + 0.3 COL00007 + COL00010 <= 0
 ROW00018: + 0.7 COL00011 >= 0
 ROW00019: - COL00018 + 5 COL00028 = 0
 ROW00020: - COL00019 + 5 COL00029 = 0
 ROW00021: - COL00020 + 5 COL00030 = 0
 ROW00022: - COL00021 + 5 COL00031 = 0
 ROW00023: - COL00022 + 5 COL00032 = 0
 ROW00024: - COL00023 + 5 COL00033 = 0
 ROW00025: - COL00024 + 5 COL00034 = 0
 ROW00026: - COL00025 + 5 COL00035 = 0
 ROW00027: - COL00026 + 5 COL00036 = 0
 ROW00028: - COL00027 + 5 COL00037 = 0
 ROW00029: + 0.844 COL00001 - COL00038 + 5 COL00048 = 0
 ROW00030: + 0.844 COL00002 - COL00039 + 5 COL00049 = 0
 ROW00031: + 0.844 COL00003 - COL00040 = 0
 ROW00032: + 0.844 COL00004 - COL00041 = 0
 ROW00033: + 0.844 COL00005 - COL00042 + 5 COL00050 = 0
 ROW00034: + 0.844 COL00006 - COL00043 + 5 COL00051 = 0
 ROW00035: + 0.844 COL00007 - COL00044 = 0
 ROW00036: + 0.844 COL00008 - COL00045 = 0
 ROW00037: + 0.844 COL00009 - COL00046 + 5 COL00052 = 0
 ROW00038: + COL00038 + COL00039 + COL00040 + COL00041 - COL00045 >= 1
 ROW00039: + COL00042 + COL00043 + 22.5 COL00044 + 36 COL00045 >= 1.1911
 ROW00040: + 0.2 COL00015 + 0.0657 COL00038 + 0.0013 COL00043
 - 0.2 COL00053 = -0.1
 ROW00041: + 0.2 COL00016 + 0.001 COL00042 - 0.2 COL00054 = -0.3
 ROW00042: + 0.17 COL00002 + 0.062 COL00003 + 0.2 COL00017
 + 0.16 COL00047 - 0.2 COL00055 = 0
 ROW00043: - 0.016 COL00002 - 0.007 COL00007 + 0.16 COL00039
 + 0.5 COL00049 - COL00066 - COL00067 - COL00068 - COL00069 - COL00070
 - COL00071 - COL00072 - COL00073 - COL00074 - COL00075 <= 0
 ROW00044: - 0.007 COL00002 - 0.005 COL00007 + 0.11 COL00039 - COL00046
 + 0.23 COL00049 <= 0
 ROW00045: - COL00003 + 0.3 COL00044 + COL00047 <= 0
 ROW00046: + 0.7 COL00048 - 0.3 COL00049 >= 0
 ROW00047: + COL00018 - COL00056 + 5 COL00066 <= 1.5
 ROW00048: + COL00019 - COL00057 + 5 COL00067 <= 1
 ROW00049: + COL00020 - COL00058 + 5 COL00068 <= 1
 ROW00050: + COL00021 - COL00059 + 5 COL00069 <= 1
 ROW00051: + COL00022 - COL00060 + 5 COL00070 <= 1
 ROW00052: + COL00023 - COL00061 + 5 COL00071 <= 1
 ROW00053: + COL00024 - COL00062 + 5 COL00072 <= 1
 ROW00054: + COL00025 - COL00063 + 5 COL00073 <= 1
 ROW00055: + COL00026 - COL00064 + 5 COL00074 <= 1
 ROW00056: + COL00027 - COL00065 + 5 COL00075 <= 1
 ROW00057: + 0.844 COL00001 - COL00076 + 5 COL00086 = 0
 ROW00058: + 0.844 COL00002 - COL00077 + 5 COL00087 = 0
 ROW00059: + 0.844 COL00003 - COL00078 = 0
 ROW00060: + 0.844 COL00004 - COL00079 = 0
 ROW00061: + 0.844 COL00005 - COL00080 + 5 COL00088 = 0
 ROW00062: + 0.844 COL00006 - COL00081 + 5 COL00089 = 0
 ROW00063: + 0.844 COL00007 - COL00082 = 0
 ROW00064: + 0.844 COL00008 - COL00083 = 0
 ROW00065: + 0.844 COL00009 - COL00084 + 5 COL00090 = 0
 ROW00066: + COL00076 + COL00077 + COL00078 + COL00079 - COL00083 >= 1
 ROW00067: + COL00080 + COL00081 + 22.5 COL00082 + 36 COL00083 >= 1.1911
 ROW00068: + 0.2 COL00015 + 0.0657 COL00076 + 0.0013 COL00081
 - 0.2 COL00091 = -0.1
 ROW00069: + 0.2 COL00016 + 0.001 COL00080 - 0.2 COL00092 = 0.18
 ROW00070: + 0.17 COL00002 + 0.062 COL00003 + 0.2 COL00017
 + 0.16 COL00085 - 0.2 COL00093 = 0
 ROW00071: - 0.016 COL00002 - 0.007 COL00007 + 0.16 COL00077
 + 0.5 COL00087 - COL00104 - COL00105 - COL00106 - COL00107 - COL00108
 - COL00109 - COL00110 - COL00111 - COL00112 - COL00113 <= 0
 ROW00072: - 0.007 COL00002 - 0.005 COL00007 + 0.11 COL00077 - COL00084
 + 0.23 COL00087 <= 0
 ROW00073: - COL00003 + 0.3 COL00082 + COL00085 <= 0
 ROW00074: + 0.7 COL00086 - 0.3 COL00087 >= 0
 ROW00075: + COL00018 - COL00094 + 5 COL00104 <= 1.5
 ROW00076: + COL00019 - COL00095 + 5 COL00105 <= 1
 ROW00077: + COL00020 - COL00096 + 5 COL00106 <= 1
 ROW00078: + COL00021 - COL00097 + 5 COL00107 <= 1
 ROW00079: + COL00022 - COL00098 + 5 COL00108 <= 1
 ROW00080: + COL00023 - COL00099 + 5 COL00109 <= 1
 ROW00081: + COL00024 - COL00100 + 5 COL00110 <= 1
 ROW00082: + COL00025 - COL00101 + 5 COL00111 <= 1
 ROW00083: + COL00026 - COL00102 + 5 COL00112 <= 1
 ROW00084: + COL00027 - COL00103 + 5 COL00113 <= 1
 ROW00085: + 0.844 COL00001 - COL00114 + 5 COL00124 = 0
 ROW00086: + 0.844 COL00002 - COL00115 + 5 COL00125 = 0
 ROW00087: + 0.844 COL00003 - COL00116 = 0
 ROW00088: + 0.844 COL00004 - COL00117 = 0
 ROW00089: + 0.844 COL00005 - COL00118 + 5 COL00126 = 0
 ROW00090: + 0.844 COL00006 - COL00119 + 5 COL00127 = 0
 ROW00091: + 0.844 COL00007 - COL00120 = 0
 ROW00092: + 0.844 COL00008 - COL00121 = 0
 ROW00093: + 0.844 COL00009 - COL00122 + 5 COL00128 = 0
 ROW00094: + COL00114 + COL00115 + COL00116 + COL00117 - COL00121 >= 1
 ROW00095: + COL00118 + COL00119 + 22.5 COL00120 + 36 COL00121 >= 1.1911
 ROW00096: + 0.2 COL00015 + 0.0657 COL00114 + 0.0013 COL00119
 - 0.2 COL00129 = 0.05
 ROW00097: + 0.2 COL00016 + 0.001 COL00118 - 0.2 COL00130 = -0.3
 ROW00098: + 0.17 COL00002 + 0.062 COL00003 + 0.2 COL00017
 + 0.16 COL00123 - 0.2 COL00131 = 0
 ROW00099: - 0.016 COL00002 - 0.007 COL00007 + 0.16 COL00115
 + 0.5 COL00125 - COL00142 - COL00143 - COL00144 - COL00145 - COL00146
 - COL00147 - COL00148 - COL00149 - COL00150 - COL00151 <= 0
 ROW00100: - 0.007 COL00002 - 0.005 COL00007 + 0.11 COL00115 - COL00122
 + 0.23 COL00125 <= 0
 ROW00101: - COL00003 + 0.3 COL00120 + COL00123 <= 0
 ROW00102: + 0.7 COL00124 - 0.3 COL00125 >= 0
 ROW00103: + COL00018 - COL00132 + 5 COL00142 <= 1.5
 ROW00104: + COL00019 - COL00133 + 5 COL00143 <= 1
 ROW00105: + COL00020 - COL00134 + 5 COL00144 <= 1
 ROW00106: + COL00021 - COL00135 + 5 COL00145 <= 1
 ROW00107: + COL00022 - COL00136 + 5 COL00146 <= 1
 ROW00108: + COL00023 - COL00137 + 5 COL00147 <= 1
 ROW00109: + COL00024 - COL00138 + 5 COL00148 <= 1
 ROW00110: + COL00025 - COL00139 + 5 COL00149 <= 1
 ROW00111: + COL00026 - COL00140 + 5 COL00150 <= 1
 ROW00112: + COL00027 - COL00141 + 5 COL00151 <= 1
 ROW00113: + 0.844 COL00001 - COL00152 + 5 COL00162 = 0
 ROW00114: + 0.844 COL00002 - COL00153 + 5 COL00163 = 0
 ROW00115: + 0.844 COL00003 - COL00154 = 0
 ROW00116: + 0.844 COL00004 - COL00155 = 0
 ROW00117: + 0.844 COL00005 - COL00156 + 5 COL00164 = 0
 ROW00118: + 0.844 COL00006 - COL00157 + 5 COL00165 = 0
 ROW00119: + 0.844 COL00007 - COL00158 = 0
 ROW00120: + 0.844 COL00008 - COL00159 = 0
 ROW00121: + 0.844 COL00009 - COL00160 + 5 COL00166 = 0
 ROW00122: + COL00152 + COL00153 + COL00154 + COL00155 - COL00159 >= 1
 ROW00123: + COL00156 + COL00157 + 22.5 COL00158 + 36 COL00159 >= 1.1911
 ROW00124: + 0.2 COL00015 + 0.0657 COL00152 + 0.0013 COL00157
 - 0.2 COL00167 = 0.05
 ROW00125: + 0.2 COL00016 + 0.001 COL00156 - 0.2 COL00168 = 0.18
 ROW00126: + 0.17 COL00002 + 0.062 COL00003 + 0.2 COL00017
 + 0.16 COL00161 - 0.2 COL00169 = 0
 ROW00127: - 0.016 COL00002 - 0.007 COL00007 + 0.16 COL00153
 + 0.5 COL00163 - COL00180 - COL00181 - COL00182 - COL00183 - COL00184
 - COL00185 - COL00186 - COL00187 - COL00188 - COL00189 <= 0
 ROW00128: - 0.007 COL00002 - 0.005 COL00007 + 0.11 COL00153 - COL00160
 + 0.23 COL00163 <= 0
 ROW00129: - COL00003 + 0.3 COL00158 + COL00161 <= 0
 ROW00130: + 0.7 COL00162 - 0.3 COL00163 >= 0
 ROW00131: + COL00018 - COL00170 + 5 COL00180 <= 1.5
 ROW00132: + COL00019 - COL00171 + 5 COL00181 <= 1
 ROW00133: + COL00020 - COL00172 + 5 COL00182 <= 1
 ROW00134: + COL00021 - COL00173 + 5 COL00183 <= 1
 ROW00135: + COL00022 - COL00174 + 5 COL00184 <= 1
 ROW00136: + COL00023 - COL00175 + 5 COL00185 <= 1
 ROW00137: + COL00024 - COL00176 + 5 COL00186 <= 1
 ROW00138: + COL00025 - COL00177 + 5 COL00187 <= 1
 ROW00139: + COL00026 - COL00178 + 5 COL00188 <= 1
 ROW00140: + COL00027 - COL00179 + 5 COL00189 <= 1
 ROW00141: + 0.844 COL00001 - COL00190 + 5 COL00200 = 0
 ROW00142: + 0.844 COL00002 - COL00191 + 5 COL00201 = 0
 ROW00143: + 0.844 COL00003 - COL00192 = 0
 ROW00144: + 0.844 COL00004 - COL00193 = 0
 ROW00145: + 0.844 COL00005 - COL00194 + 5 COL00202 = 0
 ROW00146: + 0.844 COL00006 - COL00195 + 5 COL00203 = 0
 ROW00147: + 0.844 COL00007 - COL00196 = 0
 ROW00148: + 0.844 COL00008 - COL00197 = 0
 ROW00149: + 0.844 COL00009 - COL00198 + 5 COL00204 = 0
 ROW00150: + COL00190 + COL00191 + COL00192 + COL00193 - COL00197 >= -1
 ROW00151: + COL00194 + COL00195 + 22.5 COL00196 + 36 COL00197 >= 1.1911
 ROW00152: + 0.2 COL00015 + 0.0657 COL00190 + 0.0013 COL00195
 - 0.2 COL00205 = -0.1
 ROW00153: + 0.2 COL00016 + 0.001 COL00194 - 0.2 COL00206 = -0.3
 ROW00154: + 0.17 COL00002 + 0.062 COL00003 + 0.2 COL00017
 + 0.16 COL00199 - 0.2 COL00207 = 0
 ROW00155: - 0.016 COL00002 - 0.007 COL00007 + 0.16 COL00191
 + 0.5 COL00201 - COL00218 - COL00219 - COL00220 - COL00221 - COL00222
 - COL00223 - COL00224 - COL00225 - COL00226 - COL00227 <= 0
 ROW00156: - 0.007 COL00002 - 0.005 COL00007 + 0.11 COL00191 - COL00198
 + 0.23 COL00201 <= 0
 ROW00157: - COL00003 + 0.3 COL00196 + COL00199 <= 0
 ROW00158: + 0.7 COL00200 - 0.3 COL00201 >= 0
 ROW00159: + COL00018 - COL00208 + 5 COL00218 <= 1.5
 ROW00160: + COL00019 - COL00209 + 5 COL00219 <= 1
 ROW00161: + COL00020 - COL00210 + 5 COL00220 <= 1
 ROW00162: + COL00021 - COL00211 + 5 COL00221 <= 1
 ROW00163: + COL00022 - COL00212 + 5 COL00222 <= 1
 ROW00164: + COL00023 - COL00213 + 5 COL00223 <= 1
 ROW00165: + COL00024 - COL00214 + 5 COL00224 <= 1
 ROW00166: + COL00025 - COL00215 + 5 COL00225 <= 1
 ROW00167: + COL00026 - COL00216 + 5 COL00226 <= 1
 ROW00168: + COL00027 - COL00217 + 5 COL00227 <= 1
 ROW00169: + 0.844 COL00001 - COL00228 + 5 COL00238 = 0
 ROW00170: + 0.844 COL00002 - COL00229 + 5 COL00239 = 0
 ROW00171: + 0.844 COL00003 - COL00230 = 0
 ROW00172: + 0.844 COL00004 - COL00231 = 0
 ROW00173: + 0.844 COL00005 - COL00232 + 5 COL00240 = 0
 ROW00174: + 0.844 COL00006 - COL00233 + 5 COL00241 = 0
 ROW00175: + 0.844 COL00007 - COL00234 = 0
 ROW00176: + 0.844 COL00008 - COL00235 = 0
 ROW00177: + 0.844 COL00009 - COL00236 + 5 COL00242 = 0
 ROW00178: + COL00228 + COL00229 + COL00230 + COL00231 - COL00235 >= -1
 ROW00179: + COL00232 + COL00233 + 22.5 COL00234 + 36 COL00235 >= 1.1911
 ROW00180: + 0.2 COL00015 + 0.0657 COL00228 + 0.0013 COL00233
 - 0.2 COL00243 = -0.1
 ROW00181: + 0.2 COL00016 + 0.001 COL00232 - 0.2 COL00244 = 0.18
 ROW00182: + 0.17 COL00002 + 0.062 COL00003 + 0.2 COL00017
 + 0.16 COL00237 - 0.2 COL00245 = 0
 ROW00183: - 0.016 COL00002 - 0.007 COL00007 + 0.16 COL00229
 + 0.5 COL00239 - COL00256 - COL00257 - COL00258 - COL00259 - COL00260
 - COL00261 - COL00262 - COL00263 - COL00264 - COL00265 <= 0
 ROW00184: - 0.007 COL00002 - 0.005 COL00007 + 0.11 COL00229 - COL00236
 + 0.23 COL00239 <= 0
 ROW00185: - COL00003 + 0.3 COL00234 + COL00237 <= 0
 ROW00186: + 0.7 COL00238 - 0.3 COL00239 >= 0
 ROW00187: + COL00018 - COL00246 + 5 COL00256 <= 1.5
 ROW00188: + COL00019 - COL00247 + 5 COL00257 <= 1
 ROW00189: + COL00020 - COL00248 + 5 COL00258 <= 1
 ROW00190: + COL00021 - COL00249 + 5 COL00259 <= 1
 ROW00191: + COL00022 - COL00250 + 5 COL00260 <= 1
 ROW00192: + COL00023 - COL00251 + 5 COL00261 <= 1
 ROW00193: + COL00024 - COL00252 + 5 COL00262 <= 1
 ROW00194: + COL00025 - COL00253 + 5 COL00263 <= 1
 ROW00195: + COL00026 - COL00254 + 5 COL00264 <= 1
 ROW00196: + COL00027 - COL00255 + 5 COL00265 <= 1
 ROW00197: + 0.844 COL00001 - COL00266 + 5 COL00276 = 0
 ROW00198: + 0.844 COL00002 - COL00267 + 5 COL00277 = 0
 ROW00199: + 0.844 COL00003 - COL00268 = 0
 ROW00200: + 0.844 COL00004 - COL00269 = 0
 ROW00201: + 0.844 COL00005 - COL00270 + 5 COL00278 = 0
 ROW00202: + 0.844 COL00006 - COL00271 + 5 COL00279 = 0
 ROW00203: + 0.844 COL00007 - COL00272 = 0
 ROW00204: + 0.844 COL00008 - COL00273 = 0
 ROW00205: + 0.844 COL00009 - COL00274 + 5 COL00280 = 0
 ROW00206: + COL00266 + COL00267 + COL00268 + COL00269 - COL00273 >= -1
 ROW00207: + COL00270 + COL00271 + 22.5 COL00272 + 36 COL00273 >= 1.1911
 ROW00208: + 0.2 COL00015 + 0.0657 COL00266 + 0.0013 COL00271
 - 0.2 COL00281 = 0.05
 ROW00209: + 0.2 COL00016 + 0.001 COL00270 - 0.2 COL00282 = -0.3
 ROW00210: + 0.17 COL00002 + 0.062 COL00003 + 0.2 COL00017
 + 0.16 COL00275 - 0.2 COL00283 = 0
 ROW00211: - 0.016 COL00002 - 0.007 COL00007 + 0.16 COL00267
 + 0.5 COL00277 - COL00294 - COL00295 - COL00296 - COL00297 - COL00298
 - COL00299 - COL00300 - COL00301 - COL00302 - COL00303 <= 0
 ROW00212: - 0.007 COL00002 - 0.005 COL00007 + 0.11 COL00267 - COL00274
 + 0.23 COL00277 <= 0
 ROW00213: - COL00003 + 0.3 COL00272 + COL00275 <= 0
 ROW00214: + 0.7 COL00276 - 0.3 COL00277 >= 0
 ROW00215: + COL00018 - COL00284 + 5 COL00294 <= 1.5
 ROW00216: + COL00019 - COL00285 + 5 COL00295 <= 1
 ROW00217: + COL00020 - COL00286 + 5 COL00296 <= 1
 ROW00218: + COL00021 - COL00287 + 5 COL00297 <= 1
 ROW00219: + COL00022 - COL00288 + 5 COL00298 <= 1
 ROW00220: + COL00023 - COL00289 + 5 COL00299 <= 1
 ROW00221: + COL00024 - COL00290 + 5 COL00300 <= 1
 ROW00222: + COL00025 - COL00291 + 5 COL00301 <= 1
 ROW00223: + COL00026 - COL00292 + 5 COL00302 <= 1
 ROW00224: + COL00027 - COL00293 + 5 COL00303 <= 1
 ROW00225: + 0.844 COL00001 - COL00304 + 5 COL00314 = 0
 ROW00226: + 0.844 COL00002 - COL00305 + 5 COL00315 = 0
 ROW00227: + 0.844 COL00003 - COL00306 = 0
 ROW00228: + 0.844 COL00004 - COL00307 = 0
 ROW00229: + 0.844 COL00005 - COL00308 + 5 COL00316 = 0
 ROW00230: + 0.844 COL00006 - COL00309 + 5 COL00317 = 0
 ROW00231: + 0.844 COL00007 - COL00310 = 0
 ROW00232: + 0.844 COL00008 - COL00311 = 0
 ROW00233: + 0.844 COL00009 - COL00312 + 5 COL00318 = 0
 ROW00234: + COL00304 + COL00305 + COL00306 + COL00307 - COL00311 >= -1
 ROW00235: + COL00308 + COL00309 + 22.5 COL00310 + 36 COL00311 >= 1.1911
 ROW00236: + 0.2 COL00015 + 0.0657 COL00304 + 0.0013 COL00309
 - 0.2 COL00319 = 0.05
 ROW00237: + 0.2 COL00016 + 0.001 COL00308 - 0.2 COL00320 = 0.18
 ROW00238: + 0.17 COL00002 + 0.062 COL00003 + 0.2 COL00017
 + 0.16 COL00313 - 0.2 COL00321 = 0
 ROW00239: - 0.016 COL00002 - 0.007 COL00007 + 0.16 COL00305
 + 0.5 COL00315 - COL00332 - COL00333 - COL00334 - COL00335 - COL00336
 - COL00337 - COL00338 - COL00339 - COL00340 - COL00341 <= 0
 ROW00240: - 0.007 COL00002 - 0.005 COL00007 + 0.11 COL00305 - COL00312
 + 0.23 COL00315 <= 0
 ROW00241: - COL00003 + 0.3 COL00310 + COL00313 <= 0
 ROW00242: + 0.7 COL00314 - 0.3 COL00315 >= 0
 ROW00243: + COL00018 - COL00322 + 5 COL00332 <= 1.5
 ROW00244: + COL00019 - COL00323 + 5 COL00333 <= 1
 ROW00245: + COL00020 - COL00324 + 5 COL00334 <= 1
 ROW00246: + COL00021 - COL00325 + 5 COL00335 <= 1
 ROW00247: + COL00022 - COL00326 + 5 COL00336 <= 1
 ROW00248: + COL00023 - COL00327 + 5 COL00337 <= 1
 ROW00249: + COL00024 - COL00328 + 5 COL00338 <= 1
 ROW00250: + COL00025 - COL00329 + 5 COL00339 <= 1
 ROW00251: + COL00026 - COL00330 + 5 COL00340 <= 1
 ROW00252: + COL00027 - COL00331 + 5 COL00341 <= 1

End
